N = 5;
Capacity = 15;
Demand = [4, 8, 10, 5, 1];
Distance = [|
  0, 57, 48, 28, 56, 16
| 57, 0, 47, 79, 87, 52
| 48, 47, 0, 52, 43, 56
| 28, 79, 52, 0, 36, 43
| 56, 87, 43, 36, 0, 71
| 16, 52, 56, 43, 71, 0
|];
